Route #1: 41 2 10 47 14
Route #2: 12 5 1 31 43 23
Route #3: 6 22 38 19 25 3 37
Route #4: 33 30 46 21 29 16 17
Route #5: 18 44 32 36 7 45
Route #6: 15 42 11 4 13 24 9 34 28
Route #7: 40 27 39 26 20 8 35
cost 1195.597412109375